p edge 37 131
v 1 12
v 2 112
v 3 24
v 4 46
v 5 28
v 6 10
v 7 120
v 8 80
v 9 120
v 10 120
v 11 80
v 12 80
v 13 80
v 14 120
v 15 20
v 16 50
v 17 120
v 18 80
v 19 90
v 20 100
v 21 70
v 22 128
v 23 10
v 24 30
v 25 20
v 26 90
v 27 28
v 28 68
v 29 30
v 30 30
v 31 14
v 32 40
v 33 120
v 34 40
v 35 60
v 36 20
v 37 30
e 1 2
e 1 3
e 1 4
e 1 9
e 1 14
e 1 21
e 1 25
e 1 34
e 2 3
e 2 22
e 3 7
e 3 12
e 3 15
e 3 23
e 3 36
e 4 5
e 4 6
e 4 7
e 4 8
e 4 9
e 4 14
e 4 21
e 4 25
e 4 34
e 5 6
e 5 7
e 5 8
e 5 29
e 6 7
e 6 8
e 6 31
e 7 8
e 7 12
e 7 15
e 7 23
e 7 36
e 8 16
e 8 20
e 8 28
e 9 10
e 9 11
e 9 12
e 9 13
e 9 14
e 9 21
e 9 25
e 9 34
e 10 11
e 10 12
e 10 13
e 10 18
e 10 26
e 10 30
e 11 12
e 11 13
e 11 19
e 11 27
e 11 32
e 11 35
e 12 13
e 12 15
e 12 23
e 12 36
e 13 17
e 13 24
e 13 33
e 13 37
e 14 15
e 14 16
e 14 17
e 14 21
e 14 25
e 14 34
e 15 16
e 15 17
e 15 23
e 15 36
e 16 17
e 16 20
e 16 28
e 17 24
e 17 33
e 17 37
e 18 19
e 18 20
e 18 26
e 18 30
e 19 20
e 19 27
e 19 32
e 19 35
e 20 28
e 21 22
e 21 23
e 21 24
e 21 25
e 21 34
e 22 23
e 22 24
e 23 24
e 23 36
e 24 33
e 24 37
e 25 26
e 25 27
e 25 28
e 25 34
e 26 27
e 26 28
e 26 30
e 27 28
e 27 32
e 27 35
e 29 30
e 29 31
e 29 32
e 29 33
e 30 31
e 30 32
e 30 33
e 31 32
e 31 33
e 32 33
e 32 35
e 33 37
e 34 35
e 34 36
e 34 37
e 35 36
e 35 37
e 36 37
